p cnf 200 1110
-101 56 0
-101 63 0
-101 -83 0
-101 -47 0
-101 -91 0
-101 60 0
-101 -74 0
-101 1 0
-101 -35 0
-101 -39 0
101 -56 -63 83 47 91 -60 74 -1 35 39 0
-102 -36 0
-102 32 0
-102 -15 0
-102 51 0
-102 -97 0
-102 56 0
-102 43 0
-102 13 0
-102 21 0
-102 40 0
102 36 -32 15 -51 97 -56 -43 -13 -21 -40 0
-103 -22 0
-103 -43 0
-103 1 0
-103 90 0
-103 -29 0
-103 -31 0
-103 -40 0
-103 -39 0
-103 98 0
-103 -42 0
103 22 43 -1 -90 29 31 40 39 -98 42 0
-104 26 0
-104 -13 0
-104 -27 0
-104 -29 0
-104 -88 0
-104 -35 0
-104 -62 0
-104 -87 0
-104 -98 0
-104 10 0
104 -26 13 27 29 88 35 62 87 98 -10 0
-105 -51 0
-105 -48 0
-105 -35 0
-105 96 0
-105 -30 0
-105 -75 0
-105 -1 0
-105 91 0
-105 -84 0
-105 44 0
105 51 48 35 -96 30 75 1 -91 84 -44 0
-106 53 0
-106 14 0
-106 13 0
-106 98 0
-106 22 0
-106 11 0
-106 1 0
-106 42 0
-106 -15 0
-106 62 0
106 -53 -14 -13 -98 -22 -11 -1 -42 15 -62 0
-107 26 0
-107 73 0
-107 -48 0
-107 4 0
-107 94 0
-107 61 0
-107 100 0
-107 40 0
-107 35 0
-107 45 0
107 -26 -73 48 -4 -94 -61 -100 -40 -35 -45 0
-108 33 0
-108 1 0
-108 -41 0
-108 -20 0
-108 -6 0
-108 -100 0
-108 -18 0
-108 69 0
-108 -11 0
-108 90 0
108 -33 -1 41 20 6 100 18 -69 11 -90 0
-109 -62 0
-109 -61 0
-109 33 0
-109 92 0
-109 58 0
-109 15 0
-109 -43 0
-109 38 0
-109 -1 0
-109 -82 0
109 62 61 -33 -92 -58 -15 43 -38 1 82 0
-110 25 0
-110 68 0
-110 54 0
-110 66 0
-110 28 0
-110 55 0
-110 83 0
-110 -79 0
-110 -95 0
-110 -72 0
110 -25 -68 -54 -66 -28 -55 -83 79 95 72 0
101 102 103 104 105 106 107 108 109 110 0
-111 13 0
-111 -93 0
-111 56 0
-111 -57 0
-111 -9 0
-111 70 0
-111 91 0
-111 30 0
-111 -60 0
-111 29 0
111 -13 93 -56 57 9 -70 -91 -30 60 -29 0
-112 -54 0
-112 28 0
-112 75 0
-112 -78 0
-112 30 0
-112 15 0
-112 -31 0
-112 -40 0
-112 6 0
-112 98 0
112 54 -28 -75 78 -30 -15 31 40 -6 -98 0
-113 37 0
-113 35 0
-113 80 0
-113 -76 0
-113 22 0
-113 21 0
-113 -30 0
-113 24 0
-113 79 0
-113 -77 0
113 -37 -35 -80 76 -22 -21 30 -24 -79 77 0
-114 -90 0
-114 -4 0
-114 -13 0
-114 -7 0
-114 42 0
-114 -86 0
-114 -34 0
-114 85 0
-114 -76 0
-114 -78 0
114 90 4 13 7 -42 86 34 -85 76 78 0
-115 -77 0
-115 -93 0
-115 -25 0
-115 -69 0
-115 -86 0
-115 16 0
-115 94 0
-115 -46 0
-115 15 0
-115 72 0
115 77 93 25 69 86 -16 -94 46 -15 -72 0
-116 38 0
-116 68 0
-116 12 0
-116 -18 0
-116 -61 0
-116 54 0
-116 27 0
-116 -65 0
-116 91 0
-116 -93 0
116 -38 -68 -12 18 61 -54 -27 65 -91 93 0
-117 -72 0
-117 -96 0
-117 -5 0
-117 -53 0
-117 -58 0
-117 83 0
-117 55 0
-117 -80 0
-117 -43 0
-117 10 0
117 72 96 5 53 58 -83 -55 80 43 -10 0
-118 47 0
-118 -45 0
-118 -56 0
-118 92 0
-118 12 0
-118 66 0
-118 -26 0
-118 -97 0
-118 -88 0
-118 -9 0
118 -47 45 56 -92 -12 -66 26 97 88 9 0
-119 -85 0
-119 91 0
-119 -17 0
-119 -26 0
-119 36 0
-119 92 0
-119 -32 0
-119 43 0
-119 -42 0
-119 58 0
119 85 -91 17 26 -36 -92 32 -43 42 -58 0
-120 60 0
-120 -94 0
-120 -66 0
-120 -74 0
-120 -87 0
-120 62 0
-120 72 0
-120 5 0
-120 27 0
-120 -10 0
120 -60 94 66 74 87 -62 -72 -5 -27 10 0
111 112 113 114 115 116 117 118 119 120 0
-121 -68 0
-121 21 0
-121 46 0
-121 31 0
-121 76 0
-121 -18 0
-121 -55 0
-121 47 0
-121 88 0
-121 -85 0
121 68 -21 -46 -31 -76 18 55 -47 -88 85 0
-122 41 0
-122 -21 0
-122 -45 0
-122 25 0
-122 61 0
-122 37 0
-122 28 0
-122 38 0
-122 -91 0
-122 89 0
122 -41 21 45 -25 -61 -37 -28 -38 91 -89 0
-123 10 0
-123 84 0
-123 26 0
-123 25 0
-123 -59 0
-123 91 0
-123 -47 0
-123 32 0
-123 -30 0
-123 -49 0
123 -10 -84 -26 -25 59 -91 47 -32 30 49 0
-124 5 0
-124 -13 0
-124 42 0
-124 -66 0
-124 58 0
-124 -55 0
-124 62 0
-124 67 0
-124 -92 0
-124 4 0
124 -5 13 -42 66 -58 55 -62 -67 92 -4 0
-125 46 0
-125 34 0
-125 73 0
-125 98 0
-125 79 0
-125 -96 0
-125 -91 0
-125 36 0
-125 -47 0
-125 38 0
125 -46 -34 -73 -98 -79 96 91 -36 47 -38 0
-126 -44 0
-126 34 0
-126 -74 0
-126 -59 0
-126 -31 0
-126 12 0
-126 -65 0
-126 -71 0
-126 -16 0
-126 -62 0
126 44 -34 74 59 31 -12 65 71 16 62 0
-127 62 0
-127 -93 0
-127 15 0
-127 -58 0
-127 10 0
-127 -18 0
-127 41 0
-127 -72 0
-127 -81 0
-127 26 0
127 -62 93 -15 58 -10 18 -41 72 81 -26 0
-128 -37 0
-128 73 0
-128 -29 0
-128 -98 0
-128 -12 0
-128 44 0
-128 -58 0
-128 100 0
-128 45 0
-128 -99 0
128 37 -73 29 98 12 -44 58 -100 -45 99 0
-129 63 0
-129 -84 0
-129 -81 0
-129 -38 0
-129 67 0
-129 -11 0
-129 -75 0
-129 -51 0
-129 -56 0
-129 22 0
129 -63 84 81 38 -67 11 75 51 56 -22 0
-130 25 0
-130 -4 0
-130 -40 0
-130 98 0
-130 88 0
-130 71 0
-130 74 0
-130 -63 0
-130 -87 0
-130 -13 0
130 -25 4 40 -98 -88 -71 -74 63 87 13 0
121 122 123 124 125 126 127 128 129 130 0
-131 93 0
-131 96 0
-131 95 0
-131 -35 0
-131 84 0
-131 -7 0
-131 -12 0
-131 87 0
-131 -4 0
-131 -15 0
131 -93 -96 -95 35 -84 7 12 -87 4 15 0
-132 -100 0
-132 87 0
-132 63 0
-132 -50 0
-132 68 0
-132 16 0
-132 61 0
-132 71 0
-132 -44 0
-132 -70 0
132 100 -87 -63 50 -68 -16 -61 -71 44 70 0
-133 79 0
-133 43 0
-133 -72 0
-133 49 0
-133 42 0
-133 -70 0
-133 -36 0
-133 95 0
-133 -48 0
-133 44 0
133 -79 -43 72 -49 -42 70 36 -95 48 -44 0
-134 37 0
-134 56 0
-134 42 0
-134 -84 0
-134 -34 0
-134 -44 0
-134 -52 0
-134 -74 0
-134 -71 0
-134 20 0
134 -37 -56 -42 84 34 44 52 74 71 -20 0
-135 12 0
-135 -10 0
-135 69 0
-135 -5 0
-135 -46 0
-135 67 0
-135 -87 0
-135 -90 0
-135 24 0
-135 52 0
135 -12 10 -69 5 46 -67 87 90 -24 -52 0
-136 62 0
-136 69 0
-136 75 0
-136 -49 0
-136 33 0
-136 46 0
-136 -72 0
-136 -23 0
-136 89 0
-136 95 0
136 -62 -69 -75 49 -33 -46 72 23 -89 -95 0
-137 100 0
-137 43 0
-137 -50 0
-137 -6 0
-137 4 0
-137 -11 0
-137 -64 0
-137 -14 0
-137 73 0
-137 52 0
137 -100 -43 50 6 -4 11 64 14 -73 -52 0
-138 78 0
-138 89 0
-138 -16 0
-138 60 0
-138 -29 0
-138 98 0
-138 2 0
-138 -1 0
-138 -54 0
-138 -4 0
138 -78 -89 16 -60 29 -98 -2 1 54 4 0
-139 -49 0
-139 -80 0
-139 -95 0
-139 -73 0
-139 81 0
-139 18 0
-139 -58 0
-139 -88 0
-139 83 0
-139 -26 0
139 49 80 95 73 -81 -18 58 88 -83 26 0
-140 97 0
-140 -74 0
-140 -41 0
-140 -32 0
-140 38 0
-140 -24 0
-140 -28 0
-140 -47 0
-140 -92 0
-140 -91 0
140 -97 74 41 32 -38 24 28 47 92 91 0
131 132 133 134 135 136 137 138 139 140 0
-141 -49 0
-141 1 0
-141 -67 0
-141 -66 0
-141 89 0
-141 -99 0
-141 -32 0
-141 -61 0
-141 -79 0
-141 -57 0
141 49 -1 67 66 -89 99 32 61 79 57 0
-142 -76 0
-142 89 0
-142 -28 0
-142 29 0
-142 54 0
-142 -16 0
-142 -61 0
-142 -99 0
-142 32 0
-142 41 0
142 76 -89 28 -29 -54 16 61 99 -32 -41 0
-143 88 0
-143 -62 0
-143 -4 0
-143 15 0
-143 36 0
-143 2 0
-143 28 0
-143 32 0
-143 -49 0
-143 -83 0
143 -88 62 4 -15 -36 -2 -28 -32 49 83 0
-144 98 0
-144 11 0
-144 85 0
-144 5 0
-144 56 0
-144 -18 0
-144 -3 0
-144 -90 0
-144 -73 0
-144 84 0
144 -98 -11 -85 -5 -56 18 3 90 73 -84 0
-145 27 0
-145 -50 0
-145 -78 0
-145 35 0
-145 40 0
-145 13 0
-145 -9 0
-145 -67 0
-145 -68 0
-145 88 0
145 -27 50 78 -35 -40 -13 9 67 68 -88 0
-146 -65 0
-146 -76 0
-146 -47 0
-146 51 0
-146 38 0
-146 -35 0
-146 -15 0
-146 77 0
-146 -85 0
-146 -61 0
146 65 76 47 -51 -38 35 15 -77 85 61 0
-147 -57 0
-147 23 0
-147 94 0
-147 -86 0
-147 -18 0
-147 -59 0
-147 -8 0
-147 95 0
-147 2 0
-147 -50 0
147 57 -23 -94 86 18 59 8 -95 -2 50 0
-148 -73 0
-148 -64 0
-148 32 0
-148 98 0
-148 67 0
-148 62 0
-148 16 0
-148 57 0
-148 -43 0
-148 -49 0
148 73 64 -32 -98 -67 -62 -16 -57 43 49 0
-149 -63 0
-149 -51 0
-149 16 0
-149 59 0
-149 -10 0
-149 3 0
-149 20 0
-149 -30 0
-149 27 0
-149 69 0
149 63 51 -16 -59 10 -3 -20 30 -27 -69 0
-150 90 0
-150 50 0
-150 22 0
-150 13 0
-150 38 0
-150 28 0
-150 20 0
-150 -39 0
-150 32 0
-150 -24 0
150 -90 -50 -22 -13 -38 -28 -20 39 -32 24 0
141 142 143 144 145 146 147 148 149 150 0
-151 -73 0
-151 -4 0
-151 -2 0
-151 -89 0
-151 -84 0
-151 -39 0
-151 57 0
-151 -20 0
-151 80 0
-151 52 0
151 73 4 2 89 84 39 -57 20 -80 -52 0
-152 80 0
-152 -85 0
-152 -84 0
-152 71 0
-152 -99 0
-152 18 0
-152 -56 0
-152 59 0
-152 34 0
-152 -90 0
152 -80 85 84 -71 99 -18 56 -59 -34 90 0
-153 -85 0
-153 45 0
-153 -60 0
-153 -26 0
-153 16 0
-153 30 0
-153 27 0
-153 -54 0
-153 51 0
-153 -36 0
153 85 -45 60 26 -16 -30 -27 54 -51 36 0
-154 30 0
-154 48 0
-154 -49 0
-154 -90 0
-154 -97 0
-154 -47 0
-154 66 0
-154 23 0
-154 -4 0
-154 -28 0
154 -30 -48 49 90 97 47 -66 -23 4 28 0
-155 44 0
-155 62 0
-155 19 0
-155 40 0
-155 -95 0
-155 60 0
-155 -98 0
-155 76 0
-155 45 0
-155 64 0
155 -44 -62 -19 -40 95 -60 98 -76 -45 -64 0
-156 70 0
-156 -92 0
-156 2 0
-156 -5 0
-156 -91 0
-156 -100 0
-156 -84 0
-156 35 0
-156 20 0
-156 -9 0
156 -70 92 -2 5 91 100 84 -35 -20 9 0
-157 39 0
-157 75 0
-157 61 0
-157 68 0
-157 55 0
-157 13 0
-157 -3 0
-157 81 0
-157 -33 0
-157 84 0
157 -39 -75 -61 -68 -55 -13 3 -81 33 -84 0
-158 77 0
-158 -73 0
-158 61 0
-158 14 0
-158 21 0
-158 64 0
-158 -50 0
-158 27 0
-158 85 0
-158 -15 0
158 -77 73 -61 -14 -21 -64 50 -27 -85 15 0
-159 -39 0
-159 -47 0
-159 -98 0
-159 38 0
-159 -59 0
-159 20 0
-159 -16 0
-159 95 0
-159 90 0
-159 -79 0
159 39 47 98 -38 59 -20 16 -95 -90 79 0
-160 83 0
-160 68 0
-160 1 0
-160 87 0
-160 39 0
-160 93 0
-160 -18 0
-160 -3 0
-160 -24 0
-160 -51 0
160 -83 -68 -1 -87 -39 -93 18 3 24 51 0
151 152 153 154 155 156 157 158 159 160 0
-161 65 0
-161 40 0
-161 49 0
-161 80 0
-161 -70 0
-161 -35 0
-161 -63 0
-161 92 0
-161 -57 0
-161 -16 0
161 -65 -40 -49 -80 70 35 63 -92 57 16 0
-162 -72 0
-162 99 0
-162 -44 0
-162 46 0
-162 78 0
-162 -3 0
-162 79 0
-162 -8 0
-162 -7 0
-162 -27 0
162 72 -99 44 -46 -78 3 -79 8 7 27 0
-163 76 0
-163 -3 0
-163 22 0
-163 -97 0
-163 39 0
-163 42 0
-163 4 0
-163 24 0
-163 -54 0
-163 33 0
163 -76 3 -22 97 -39 -42 -4 -24 54 -33 0
-164 23 0
-164 -99 0
-164 -98 0
-164 -74 0
-164 -42 0
-164 12 0
-164 -63 0
-164 6 0
-164 75 0
-164 89 0
164 -23 99 98 74 42 -12 63 -6 -75 -89 0
-165 -63 0
-165 -64 0
-165 70 0
-165 41 0
-165 88 0
-165 80 0
-165 20 0
-165 40 0
-165 -97 0
-165 -17 0
165 63 64 -70 -41 -88 -80 -20 -40 97 17 0
-166 46 0
-166 -90 0
-166 -16 0
-166 99 0
-166 61 0
-166 72 0
-166 54 0
-166 -41 0
-166 56 0
-166 63 0
166 -46 90 16 -99 -61 -72 -54 41 -56 -63 0
-167 8 0
-167 68 0
-167 -93 0
-167 78 0
-167 -28 0
-167 -97 0
-167 10 0
-167 -67 0
-167 30 0
-167 91 0
167 -8 -68 93 -78 28 97 -10 67 -30 -91 0
-168 17 0
-168 -86 0
-168 -23 0
-168 6 0
-168 100 0
-168 -8 0
-168 32 0
-168 -60 0
-168 78 0
-168 -53 0
168 -17 86 23 -6 -100 8 -32 60 -78 53 0
-169 -3 0
-169 96 0
-169 55 0
-169 22 0
-169 13 0
-169 -33 0
-169 91 0
-169 -27 0
-169 58 0
-169 -51 0
169 3 -96 -55 -22 -13 33 -91 27 -58 51 0
-170 75 0
-170 74 0
-170 60 0
-170 -77 0
-170 -98 0
-170 -1 0
-170 31 0
-170 27 0
-170 41 0
-170 51 0
170 -75 -74 -60 77 98 1 -31 -27 -41 -51 0
161 162 163 164 165 166 167 168 169 170 0
-171 -79 0
-171 -23 0
-171 35 0
-171 60 0
-171 51 0
-171 32 0
-171 -69 0
-171 -24 0
-171 10 0
-171 -83 0
171 79 23 -35 -60 -51 -32 69 24 -10 83 0
-172 -34 0
-172 -19 0
-172 -24 0
-172 8 0
-172 72 0
-172 45 0
-172 55 0
-172 -83 0
-172 -57 0
-172 -82 0
172 34 19 24 -8 -72 -45 -55 83 57 82 0
-173 -90 0
-173 23 0
-173 -59 0
-173 88 0
-173 82 0
-173 -28 0
-173 -45 0
-173 -30 0
-173 15 0
-173 29 0
173 90 -23 59 -88 -82 28 45 30 -15 -29 0
-174 -52 0
-174 95 0
-174 6 0
-174 14 0
-174 90 0
-174 -28 0
-174 53 0
-174 -31 0
-174 2 0
-174 73 0
174 52 -95 -6 -14 -90 28 -53 31 -2 -73 0
-175 -5 0
-175 -26 0
-175 20 0
-175 -36 0
-175 79 0
-175 1 0
-175 -73 0
-175 -48 0
-175 35 0
-175 13 0
175 5 26 -20 36 -79 -1 73 48 -35 -13 0
-176 33 0
-176 -63 0
-176 44 0
-176 -39 0
-176 -84 0
-176 -79 0
-176 -41 0
-176 26 0
-176 77 0
-176 40 0
176 -33 63 -44 39 84 79 41 -26 -77 -40 0
-177 20 0
-177 -23 0
-177 -57 0
-177 -4 0
-177 -7 0
-177 -67 0
-177 56 0
-177 65 0
-177 5 0
-177 -24 0
177 -20 23 57 4 7 67 -56 -65 -5 24 0
-178 -93 0
-178 18 0
-178 -85 0
-178 44 0
-178 -26 0
-178 -94 0
-178 -71 0
-178 -64 0
-178 -50 0
-178 -99 0
178 93 -18 85 -44 26 94 71 64 50 99 0
-179 76 0
-179 89 0
-179 -61 0
-179 -60 0
-179 98 0
-179 22 0
-179 -87 0
-179 -86 0
-179 65 0
-179 7 0
179 -76 -89 61 60 -98 -22 87 86 -65 -7 0
-180 -53 0
-180 -30 0
-180 23 0
-180 -55 0
-180 49 0
-180 25 0
-180 -64 0
-180 -47 0
-180 5 0
-180 -10 0
180 53 30 -23 55 -49 -25 64 47 -5 10 0
171 172 173 174 175 176 177 178 179 180 0
-181 47 0
-181 41 0
-181 80 0
-181 -8 0
-181 43 0
-181 2 0
-181 -10 0
-181 82 0
-181 50 0
-181 100 0
181 -47 -41 -80 8 -43 -2 10 -82 -50 -100 0
-182 -62 0
-182 -22 0
-182 38 0
-182 97 0
-182 79 0
-182 -45 0
-182 -19 0
-182 2 0
-182 5 0
-182 99 0
182 62 22 -38 -97 -79 45 19 -2 -5 -99 0
-183 -4 0
-183 -69 0
-183 -70 0
-183 -41 0
-183 -25 0
-183 67 0
-183 -64 0
-183 -82 0
-183 7 0
-183 -78 0
183 4 69 70 41 25 -67 64 82 -7 78 0
-184 -31 0
-184 97 0
-184 -58 0
-184 27 0
-184 -9 0
-184 33 0
-184 -61 0
-184 -48 0
-184 81 0
-184 84 0
184 31 -97 58 -27 9 -33 61 48 -81 -84 0
-185 -72 0
-185 -91 0
-185 47 0
-185 53 0
-185 -85 0
-185 -9 0
-185 98 0
-185 -45 0
-185 95 0
-185 67 0
185 72 91 -47 -53 85 9 -98 45 -95 -67 0
-186 -88 0
-186 16 0
-186 -94 0
-186 4 0
-186 -48 0
-186 -76 0
-186 -24 0
-186 -73 0
-186 54 0
-186 41 0
186 88 -16 94 -4 48 76 24 73 -54 -41 0
-187 -52 0
-187 -66 0
-187 22 0
-187 -51 0
-187 -7 0
-187 79 0
-187 77 0
-187 11 0
-187 33 0
-187 20 0
187 52 66 -22 51 7 -79 -77 -11 -33 -20 0
-188 62 0
-188 86 0
-188 -76 0
-188 -60 0
-188 -66 0
-188 83 0
-188 37 0
-188 42 0
-188 -89 0
-188 85 0
188 -62 -86 76 60 66 -83 -37 -42 89 -85 0
-189 -36 0
-189 -71 0
-189 10 0
-189 18 0
-189 68 0
-189 -85 0
-189 -97 0
-189 -32 0
-189 -72 0
-189 -88 0
189 36 71 -10 -18 -68 85 97 32 72 88 0
-190 100 0
-190 -60 0
-190 31 0
-190 -69 0
-190 32 0
-190 -65 0
-190 72 0
-190 -66 0
-190 17 0
-190 21 0
190 -100 60 -31 69 -32 65 -72 66 -17 -21 0
181 182 183 184 185 186 187 188 189 190 0
-191 19 0
-191 8 0
-191 25 0
-191 36 0
-191 -69 0
-191 -49 0
-191 -80 0
-191 56 0
-191 7 0
-191 -44 0
191 -19 -8 -25 -36 69 49 80 -56 -7 44 0
-192 25 0
-192 -44 0
-192 -73 0
-192 31 0
-192 57 0
-192 29 0
-192 76 0
-192 -15 0
-192 -63 0
-192 56 0
192 -25 44 73 -31 -57 -29 -76 15 63 -56 0
-193 -50 0
-193 10 0
-193 19 0
-193 -52 0
-193 -28 0
-193 -42 0
-193 9 0
-193 31 0
-193 82 0
-193 84 0
193 50 -10 -19 52 28 42 -9 -31 -82 -84 0
-194 -99 0
-194 13 0
-194 -11 0
-194 40 0
-194 -94 0
-194 -95 0
-194 37 0
-194 -15 0
-194 77 0
-194 100 0
194 99 -13 11 -40 94 95 -37 15 -77 -100 0
-195 -24 0
-195 48 0
-195 -37 0
-195 47 0
-195 20 0
-195 -46 0
-195 73 0
-195 43 0
-195 -34 0
-195 21 0
195 24 -48 37 -47 -20 46 -73 -43 34 -21 0
-196 84 0
-196 97 0
-196 15 0
-196 -52 0
-196 -85 0
-196 5 0
-196 64 0
-196 87 0
-196 -21 0
-196 -88 0
196 -84 -97 -15 52 85 -5 -64 -87 21 88 0
-197 66 0
-197 53 0
-197 61 0
-197 91 0
-197 23 0
-197 31 0
-197 47 0
-197 -62 0
-197 -6 0
-197 -79 0
197 -66 -53 -61 -91 -23 -31 -47 62 6 79 0
-198 -93 0
-198 -45 0
-198 83 0
-198 90 0
-198 53 0
-198 34 0
-198 72 0
-198 55 0
-198 -89 0
-198 48 0
198 93 45 -83 -90 -53 -34 -72 -55 89 -48 0
-199 9 0
-199 25 0
-199 92 0
-199 -30 0
-199 60 0
-199 83 0
-199 59 0
-199 -49 0
-199 53 0
-199 -26 0
199 -9 -25 -92 30 -60 -83 -59 49 -53 26 0
-200 48 0
-200 -89 0
-200 -43 0
-200 -25 0
-200 -70 0
-200 88 0
-200 -44 0
-200 80 0
-200 -95 0
-200 21 0
200 -48 89 43 25 70 -88 44 -80 95 -21 0
191 192 193 194 195 196 197 198 199 200 0
